695
7811
10135
2345
9628
1063
9939
2566
2409
2627
1777
6495
10003
5938
5476
3428
2379
10054
5258
3568
8405
4921
2651
1987
2525
1765
2154
9596
9378
516
5148
3742
6911
2758
6057
5938
5805
9168
9342
7405
4069
9791
5966
9451
7019
3846
4244
3345
9495
8904
